p cnf 245 2434
1 2 3 4 5 6 7 0
8 9 10 11 12 13 14 0
15 16 17 18 19 20 21 0
22 23 24 25 26 27 28 0
29 30 31 32 33 34 35 0
36 37 38 39 40 41 42 0
43 44 45 46 47 48 49 0
50 51 52 53 54 55 56 0
57 58 59 60 61 62 63 0
64 65 66 67 68 69 70 0
71 72 73 74 75 76 77 0
78 79 80 81 82 83 84 0
85 86 87 88 89 90 91 0
92 93 94 95 96 97 98 0
99 100 101 102 103 104 105 0
106 107 108 109 110 111 112 0
113 114 115 116 117 118 119 0
120 121 122 123 124 125 126 0
127 128 129 130 131 132 133 0
134 135 136 137 138 139 140 0
141 142 143 144 145 146 147 0
148 149 150 151 152 153 154 0
155 156 157 158 159 160 161 0
162 163 164 165 166 167 168 0
169 170 171 172 173 174 175 0
176 177 178 179 180 181 182 0
183 184 185 186 187 188 189 0
190 191 192 193 194 195 196 0
197 198 199 200 201 202 203 0
204 205 206 207 208 209 210 0
211 212 213 214 215 216 217 0
218 219 220 221 222 223 224 0
225 226 227 228 229 230 231 0
232 233 234 235 236 237 238 0
239 240 241 242 243 244 245 0
-1 -2 0
-1 -3 0
-1 -4 0
-1 -5 0
-1 -6 0
-1 -7 0
-2 -3 0
-2 -4 0
-2 -5 0
-2 -6 0
-2 -7 0
-3 -4 0
-3 -5 0
-3 -6 0
-3 -7 0
-4 -5 0
-4 -6 0
-4 -7 0
-5 -6 0
-5 -7 0
-6 -7 0
-8 -9 0
-8 -10 0
-8 -11 0
-8 -12 0
-8 -13 0
-8 -14 0
-9 -10 0
-9 -11 0
-9 -12 0
-9 -13 0
-9 -14 0
-10 -11 0
-10 -12 0
-10 -13 0
-10 -14 0
-11 -12 0
-11 -13 0
-11 -14 0
-12 -13 0
-12 -14 0
-13 -14 0
-15 -16 0
-15 -17 0
-15 -18 0
-15 -19 0
-15 -20 0
-15 -21 0
-16 -17 0
-16 -18 0
-16 -19 0
-16 -20 0
-16 -21 0
-17 -18 0
-17 -19 0
-17 -20 0
-17 -21 0
-18 -19 0
-18 -20 0
-18 -21 0
-19 -20 0
-19 -21 0
-20 -21 0
-22 -23 0
-22 -24 0
-22 -25 0
-22 -26 0
-22 -27 0
-22 -28 0
-23 -24 0
-23 -25 0
-23 -26 0
-23 -27 0
-23 -28 0
-24 -25 0
-24 -26 0
-24 -27 0
-24 -28 0
-25 -26 0
-25 -27 0
-25 -28 0
-26 -27 0
-26 -28 0
-27 -28 0
-29 -30 0
-29 -31 0
-29 -32 0
-29 -33 0
-29 -34 0
-29 -35 0
-30 -31 0
-30 -32 0
-30 -33 0
-30 -34 0
-30 -35 0
-31 -32 0
-31 -33 0
-31 -34 0
-31 -35 0
-32 -33 0
-32 -34 0
-32 -35 0
-33 -34 0
-33 -35 0
-34 -35 0
-36 -37 0
-36 -38 0
-36 -39 0
-36 -40 0
-36 -41 0
-36 -42 0
-37 -38 0
-37 -39 0
-37 -40 0
-37 -41 0
-37 -42 0
-38 -39 0
-38 -40 0
-38 -41 0
-38 -42 0
-39 -40 0
-39 -41 0
-39 -42 0
-40 -41 0
-40 -42 0
-41 -42 0
-43 -44 0
-43 -45 0
-43 -46 0
-43 -47 0
-43 -48 0
-43 -49 0
-44 -45 0
-44 -46 0
-44 -47 0
-44 -48 0
-44 -49 0
-45 -46 0
-45 -47 0
-45 -48 0
-45 -49 0
-46 -47 0
-46 -48 0
-46 -49 0
-47 -48 0
-47 -49 0
-48 -49 0
-50 -51 0
-50 -52 0
-50 -53 0
-50 -54 0
-50 -55 0
-50 -56 0
-51 -52 0
-51 -53 0
-51 -54 0
-51 -55 0
-51 -56 0
-52 -53 0
-52 -54 0
-52 -55 0
-52 -56 0
-53 -54 0
-53 -55 0
-53 -56 0
-54 -55 0
-54 -56 0
-55 -56 0
-57 -58 0
-57 -59 0
-57 -60 0
-57 -61 0
-57 -62 0
-57 -63 0
-58 -59 0
-58 -60 0
-58 -61 0
-58 -62 0
-58 -63 0
-59 -60 0
-59 -61 0
-59 -62 0
-59 -63 0
-60 -61 0
-60 -62 0
-60 -63 0
-61 -62 0
-61 -63 0
-62 -63 0
-64 -65 0
-64 -66 0
-64 -67 0
-64 -68 0
-64 -69 0
-64 -70 0
-65 -66 0
-65 -67 0
-65 -68 0
-65 -69 0
-65 -70 0
-66 -67 0
-66 -68 0
-66 -69 0
-66 -70 0
-67 -68 0
-67 -69 0
-67 -70 0
-68 -69 0
-68 -70 0
-69 -70 0
-71 -72 0
-71 -73 0
-71 -74 0
-71 -75 0
-71 -76 0
-71 -77 0
-72 -73 0
-72 -74 0
-72 -75 0
-72 -76 0
-72 -77 0
-73 -74 0
-73 -75 0
-73 -76 0
-73 -77 0
-74 -75 0
-74 -76 0
-74 -77 0
-75 -76 0
-75 -77 0
-76 -77 0
-78 -79 0
-78 -80 0
-78 -81 0
-78 -82 0
-78 -83 0
-78 -84 0
-79 -80 0
-79 -81 0
-79 -82 0
-79 -83 0
-79 -84 0
-80 -81 0
-80 -82 0
-80 -83 0
-80 -84 0
-81 -82 0
-81 -83 0
-81 -84 0
-82 -83 0
-82 -84 0
-83 -84 0
-85 -86 0
-85 -87 0
-85 -88 0
-85 -89 0
-85 -90 0
-85 -91 0
-86 -87 0
-86 -88 0
-86 -89 0
-86 -90 0
-86 -91 0
-87 -88 0
-87 -89 0
-87 -90 0
-87 -91 0
-88 -89 0
-88 -90 0
-88 -91 0
-89 -90 0
-89 -91 0
-90 -91 0
-92 -93 0
-92 -94 0
-92 -95 0
-92 -96 0
-92 -97 0
-92 -98 0
-93 -94 0
-93 -95 0
-93 -96 0
-93 -97 0
-93 -98 0
-94 -95 0
-94 -96 0
-94 -97 0
-94 -98 0
-95 -96 0
-95 -97 0
-95 -98 0
-96 -97 0
-96 -98 0
-97 -98 0
-99 -100 0
-99 -101 0
-99 -102 0
-99 -103 0
-99 -104 0
-99 -105 0
-100 -101 0
-100 -102 0
-100 -103 0
-100 -104 0
-100 -105 0
-101 -102 0
-101 -103 0
-101 -104 0
-101 -105 0
-102 -103 0
-102 -104 0
-102 -105 0
-103 -104 0
-103 -105 0
-104 -105 0
-106 -107 0
-106 -108 0
-106 -109 0
-106 -110 0
-106 -111 0
-106 -112 0
-107 -108 0
-107 -109 0
-107 -110 0
-107 -111 0
-107 -112 0
-108 -109 0
-108 -110 0
-108 -111 0
-108 -112 0
-109 -110 0
-109 -111 0
-109 -112 0
-110 -111 0
-110 -112 0
-111 -112 0
-113 -114 0
-113 -115 0
-113 -116 0
-113 -117 0
-113 -118 0
-113 -119 0
-114 -115 0
-114 -116 0
-114 -117 0
-114 -118 0
-114 -119 0
-115 -116 0
-115 -117 0
-115 -118 0
-115 -119 0
-116 -117 0
-116 -118 0
-116 -119 0
-117 -118 0
-117 -119 0
-118 -119 0
-120 -121 0
-120 -122 0
-120 -123 0
-120 -124 0
-120 -125 0
-120 -126 0
-121 -122 0
-121 -123 0
-121 -124 0
-121 -125 0
-121 -126 0
-122 -123 0
-122 -124 0
-122 -125 0
-122 -126 0
-123 -124 0
-123 -125 0
-123 -126 0
-124 -125 0
-124 -126 0
-125 -126 0
-127 -128 0
-127 -129 0
-127 -130 0
-127 -131 0
-127 -132 0
-127 -133 0
-128 -129 0
-128 -130 0
-128 -131 0
-128 -132 0
-128 -133 0
-129 -130 0
-129 -131 0
-129 -132 0
-129 -133 0
-130 -131 0
-130 -132 0
-130 -133 0
-131 -132 0
-131 -133 0
-132 -133 0
-134 -135 0
-134 -136 0
-134 -137 0
-134 -138 0
-134 -139 0
-134 -140 0
-135 -136 0
-135 -137 0
-135 -138 0
-135 -139 0
-135 -140 0
-136 -137 0
-136 -138 0
-136 -139 0
-136 -140 0
-137 -138 0
-137 -139 0
-137 -140 0
-138 -139 0
-138 -140 0
-139 -140 0
-141 -142 0
-141 -143 0
-141 -144 0
-141 -145 0
-141 -146 0
-141 -147 0
-142 -143 0
-142 -144 0
-142 -145 0
-142 -146 0
-142 -147 0
-143 -144 0
-143 -145 0
-143 -146 0
-143 -147 0
-144 -145 0
-144 -146 0
-144 -147 0
-145 -146 0
-145 -147 0
-146 -147 0
-148 -149 0
-148 -150 0
-148 -151 0
-148 -152 0
-148 -153 0
-148 -154 0
-149 -150 0
-149 -151 0
-149 -152 0
-149 -153 0
-149 -154 0
-150 -151 0
-150 -152 0
-150 -153 0
-150 -154 0
-151 -152 0
-151 -153 0
-151 -154 0
-152 -153 0
-152 -154 0
-153 -154 0
-155 -156 0
-155 -157 0
-155 -158 0
-155 -159 0
-155 -160 0
-155 -161 0
-156 -157 0
-156 -158 0
-156 -159 0
-156 -160 0
-156 -161 0
-157 -158 0
-157 -159 0
-157 -160 0
-157 -161 0
-158 -159 0
-158 -160 0
-158 -161 0
-159 -160 0
-159 -161 0
-160 -161 0
-162 -163 0
-162 -164 0
-162 -165 0
-162 -166 0
-162 -167 0
-162 -168 0
-163 -164 0
-163 -165 0
-163 -166 0
-163 -167 0
-163 -168 0
-164 -165 0
-164 -166 0
-164 -167 0
-164 -168 0
-165 -166 0
-165 -167 0
-165 -168 0
-166 -167 0
-166 -168 0
-167 -168 0
-169 -170 0
-169 -171 0
-169 -172 0
-169 -173 0
-169 -174 0
-169 -175 0
-170 -171 0
-170 -172 0
-170 -173 0
-170 -174 0
-170 -175 0
-171 -172 0
-171 -173 0
-171 -174 0
-171 -175 0
-172 -173 0
-172 -174 0
-172 -175 0
-173 -174 0
-173 -175 0
-174 -175 0
-176 -177 0
-176 -178 0
-176 -179 0
-176 -180 0
-176 -181 0
-176 -182 0
-177 -178 0
-177 -179 0
-177 -180 0
-177 -181 0
-177 -182 0
-178 -179 0
-178 -180 0
-178 -181 0
-178 -182 0
-179 -180 0
-179 -181 0
-179 -182 0
-180 -181 0
-180 -182 0
-181 -182 0
-183 -184 0
-183 -185 0
-183 -186 0
-183 -187 0
-183 -188 0
-183 -189 0
-184 -185 0
-184 -186 0
-184 -187 0
-184 -188 0
-184 -189 0
-185 -186 0
-185 -187 0
-185 -188 0
-185 -189 0
-186 -187 0
-186 -188 0
-186 -189 0
-187 -188 0
-187 -189 0
-188 -189 0
-190 -191 0
-190 -192 0
-190 -193 0
-190 -194 0
-190 -195 0
-190 -196 0
-191 -192 0
-191 -193 0
-191 -194 0
-191 -195 0
-191 -196 0
-192 -193 0
-192 -194 0
-192 -195 0
-192 -196 0
-193 -194 0
-193 -195 0
-193 -196 0
-194 -195 0
-194 -196 0
-195 -196 0
-197 -198 0
-197 -199 0
-197 -200 0
-197 -201 0
-197 -202 0
-197 -203 0
-198 -199 0
-198 -200 0
-198 -201 0
-198 -202 0
-198 -203 0
-199 -200 0
-199 -201 0
-199 -202 0
-199 -203 0
-200 -201 0
-200 -202 0
-200 -203 0
-201 -202 0
-201 -203 0
-202 -203 0
-204 -205 0
-204 -206 0
-204 -207 0
-204 -208 0
-204 -209 0
-204 -210 0
-205 -206 0
-205 -207 0
-205 -208 0
-205 -209 0
-205 -210 0
-206 -207 0
-206 -208 0
-206 -209 0
-206 -210 0
-207 -208 0
-207 -209 0
-207 -210 0
-208 -209 0
-208 -210 0
-209 -210 0
-211 -212 0
-211 -213 0
-211 -214 0
-211 -215 0
-211 -216 0
-211 -217 0
-212 -213 0
-212 -214 0
-212 -215 0
-212 -216 0
-212 -217 0
-213 -214 0
-213 -215 0
-213 -216 0
-213 -217 0
-214 -215 0
-214 -216 0
-214 -217 0
-215 -216 0
-215 -217 0
-216 -217 0
-218 -219 0
-218 -220 0
-218 -221 0
-218 -222 0
-218 -223 0
-218 -224 0
-219 -220 0
-219 -221 0
-219 -222 0
-219 -223 0
-219 -224 0
-220 -221 0
-220 -222 0
-220 -223 0
-220 -224 0
-221 -222 0
-221 -223 0
-221 -224 0
-222 -223 0
-222 -224 0
-223 -224 0
-225 -226 0
-225 -227 0
-225 -228 0
-225 -229 0
-225 -230 0
-225 -231 0
-226 -227 0
-226 -228 0
-226 -229 0
-226 -230 0
-226 -231 0
-227 -228 0
-227 -229 0
-227 -230 0
-227 -231 0
-228 -229 0
-228 -230 0
-228 -231 0
-229 -230 0
-229 -231 0
-230 -231 0
-232 -233 0
-232 -234 0
-232 -235 0
-232 -236 0
-232 -237 0
-232 -238 0
-233 -234 0
-233 -235 0
-233 -236 0
-233 -237 0
-233 -238 0
-234 -235 0
-234 -236 0
-234 -237 0
-234 -238 0
-235 -236 0
-235 -237 0
-235 -238 0
-236 -237 0
-236 -238 0
-237 -238 0
-239 -240 0
-239 -241 0
-239 -242 0
-239 -243 0
-239 -244 0
-239 -245 0
-240 -241 0
-240 -242 0
-240 -243 0
-240 -244 0
-240 -245 0
-241 -242 0
-241 -243 0
-241 -244 0
-241 -245 0
-242 -243 0
-242 -244 0
-242 -245 0
-243 -244 0
-243 -245 0
-244 -245 0
-6 -11 0
-3 -11 0
-3 -8 0
-1 -9 0
-7 -15 0
-3 -18 0
-4 -19 0
-1 -18 0
-4 -26 0
-7 -22 0
-1 -28 0
-7 -24 0
-1 -34 0
-2 -33 0
-7 -30 0
-1 -29 0
-4 -38 0
-6 -42 0
-5 -40 0
-6 -37 0
-4 -61 0
-1 -57 0
-3 -57 0
-1 -58 0
-1 -77 0
-2 -72 0
-7 -73 0
-6 -76 0
-6 -79 0
-2 -83 0
-1 -78 0
-7 -82 0
-1 -88 0
-3 -90 0
-3 -86 0
-1 -87 0
-3 -98 0
-1 -98 0
-6 -94 0
-1 -94 0
-4 -103 0
-5 -103 0
-2 -99 0
-6 -103 0
-1 -113 0
-7 -117 0
-7 -114 0
-7 -115 0
-7 -120 0
-2 -126 0
-4 -122 0
-3 -124 0
-2 -138 0
-2 -139 0
-6 -134 0
-6 -136 0
-4 -145 0
-1 -142 0
-7 -144 0
-7 -143 0
-5 -162 0
-3 -163 0
-5 -167 0
-5 -166 0
-7 -169 0
-3 -171 0
-5 -174 0
-6 -169 0
-1 -182 0
-2 -177 0
-3 -181 0
-3 -177 0
-6 -187 0
-3 -187 0
-3 -189 0
-7 -184 0
-3 -194 0
-4 -194 0
-5 -195 0
-2 -196 0
-2 -203 0
-3 -199 0
-7 -199 0
-4 -197 0
-5 -206 0
-2 -210 0
-2 -204 0
-5 -207 0
-4 -214 0
-1 -217 0
-5 -216 0
-3 -212 0
-2 -224 0
-2 -222 0
-5 -218 0
-3 -223 0
-6 -225 0
-5 -229 0
-7 -230 0
-3 -229 0
-5 -232 0
-5 -235 0
-3 -232 0
-3 -234 0
-6 -240 0
-5 -245 0
-3 -244 0
-3 -245 0
-12 -16 0
-8 -18 0
-14 -21 0
-14 -18 0
-11 -30 0
-9 -29 0
-14 -33 0
-14 -30 0
-11 -37 0
-14 -42 0
-12 -41 0
-9 -42 0
-11 -43 0
-12 -47 0
-11 -47 0
-12 -49 0
-9 -54 0
-9 -53 0
-13 -54 0
-10 -53 0
-13 -61 0
-13 -59 0
-14 -60 0
-9 -59 0
-12 -67 0
-11 -67 0
-9 -65 0
-8 -64 0
-10 -75 0
-11 -72 0
-11 -71 0
-13 -76 0
-12 -109 0
-10 -111 0
-11 -110 0
-11 -107 0
-13 -126 0
-14 -125 0
-8 -126 0
-8 -121 0
-13 -131 0
-12 -131 0
-10 -133 0
-13 -129 0
-9 -134 0
-14 -135 0
-13 -139 0
-9 -138 0
-13 -143 0
-9 -141 0
-11 -147 0
-13 -142 0
-11 -167 0
-12 -164 0
-8 -162 0
-14 -163 0
-9 -175 0
-14 -173 0
-9 -170 0
-12 -172 0
-14 -180 0
-14 -177 0
-12 -177 0
-8 -180 0
-8 -189 0
-13 -183 0
-12 -188 0
-11 -186 0
-13 -190 0
-14 -191 0
-11 -193 0
-11 -190 0
-11 -201 0
-14 -197 0
-10 -198 0
-9 -203 0
-10 -207 0
-11 -209 0
-8 -209 0
-9 -208 0
-12 -219 0
-10 -224 0
-9 -218 0
-9 -222 0
-14 -225 0
-14 -229 0
-12 -227 0
-12 -228 0
-14 -241 0
-13 -244 0
-8 -245 0
-11 -239 0
-19 -26 0
-17 -22 0
-18 -28 0
-18 -24 0
-20 -35 0
-20 -34 0
-20 -30 0
-15 -29 0
-16 -45 0
-19 -48 0
-18 -46 0
-21 -44 0
-16 -55 0
-20 -52 0
-15 -54 0
-18 -53 0
-16 -58 0
-15 -58 0
-16 -59 0
-17 -58 0
-20 -72 0
-15 -73 0
-19 -75 0
-16 -71 0
-17 -79 0
-15 -82 0
-16 -78 0
-16 -83 0
-17 -110 0
-17 -108 0
-18 -110 0
-19 -106 0
-21 -115 0
-18 -116 0
-15 -119 0
-20 -118 0
-15 -126 0
-15 -121 0
-16 -125 0
-18 -124 0
-21 -132 0
-17 -132 0
-21 -127 0
-17 -129 0
-16 -139 0
-21 -136 0
-15 -134 0
-20 -136 0
-16 -161 0
-17 -155 0
-18 -156 0
-21 -157 0
-16 -166 0
-20 -168 0
-20 -165 0
-20 -162 0
-21 -174 0
-15 -169 0
-20 -172 0
-16 -172 0
-21 -178 0
-15 -180 0
-21 -179 0
-21 -182 0
-16 -183 0
-17 -187 0
-20 -188 0
-19 -186 0
-17 -194 0
-15 -190 0
-17 -191 0
-18 -195 0
-20 -198 0
-21 -200 0
-20 -203 0
-16 -198 0
-16 -207 0
-18 -207 0
-15 -206 0
-20 -209 0
-17 -215 0
-20 -213 0
-15 -215 0
-15 -212 0
-18 -219 0
-21 -219 0
-21 -224 0
-17 -218 0
-16 -231 0
-19 -225 0
-20 -225 0
-21 -226 0
-19 -232 0
-20 -233 0
-17 -237 0
-19 -238 0
-21 -239 0
-21 -245 0
-17 -241 0
-21 -241 0
-27 -44 0
-26 -44 0
-23 -44 0
-24 -45 0
-25 -54 0
-27 -56 0
-26 -54 0
-24 -54 0
-23 -59 0
-25 -60 0
-27 -60 0
-26 -63 0
-28 -77 0
-26 -77 0
-22 -74 0
-24 -73 0
-22 -79 0
-28 -83 0
-22 -81 0
-27 -84 0
-27 -86 0
-28 -88 0
-22 -86 0
-25 -89 0
-22 -95 0
-23 -96 0
-22 -98 0
-27 -94 0
-27 -126 0
-23 -121 0
-22 -125 0
-24 -123 0
-23 -130 0
-26 -130 0
-28 -131 0
-23 -131 0
-27 -140 0
-26 -139 0
-26 -138 0
-24 -138 0
-28 -155 0
-22 -155 0
-27 -161 0
-25 -161 0
-27 -167 0
-28 -168 0
-23 -167 0
-27 -166 0
-25 -170 0
-22 -170 0
-23 -175 0
-23 -170 0
-23 -183 0
-27 -184 0
-24 -183 0
-23 -187 0
-25 -193 0
-24 -192 0
-27 -195 0
-27 -192 0
-27 -208 0
-23 -205 0
-27 -207 0
-24 -208 0
-28 -219 0
-23 -222 0
-25 -220 0
-28 -220 0
-25 -225 0
-23 -231 0
-25 -230 0
-24 -227 0
-29 -39 0
-32 -39 0
-29 -37 0
-32 -36 0
-32 -45 0
-34 -45 0
-32 -47 0
-32 -46 0
-32 -60 0
-29 -62 0
-35 -63 0
-34 -62 0
-32 -65 0
-30 -66 0
-32 -70 0
-33 -64 0
-32 -76 0
-29 -71 0
-33 -73 0
-30 -76 0
-34 -86 0
-35 -88 0
-35 -87 0
-33 -87 0
-35 -96 0
-31 -97 0
-31 -94 0
-31 -98 0
-29 -104 0
-35 -104 0
-31 -101 0
-32 -104 0
-32 -118 0
-35 -117 0
-31 -113 0
-34 -117 0
-33 -121 0
-34 -120 0
-32 -120 0
-33 -120 0
-31 -127 0
-31 -129 0
-34 -131 0
-35 -128 0
-29 -140 0
-33 -138 0
-33 -135 0
-34 -139 0
-30 -159 0
-35 -156 0
-32 -159 0
-30 -155 0
-33 -168 0
-31 -162 0
-31 -163 0
-32 -168 0
-33 -173 0
-35 -173 0
-34 -174 0
-35 -169 0
-30 -194 0
-35 -191 0
-33 -193 0
-30 -195 0
-34 -203 0
-33 -199 0
-32 -203 0
-29 -197 0
-33 -211 0
-32 -212 0
-34 -215 0
-30 -212 0
-29 -219 0
-35 -218 0
-34 -221 0
-35 -219 0
-32 -230 0
-34 -227 0
-33 -229 0
-29 -226 0
-34 -234 0
-35 -236 0
-31 -238 0
-29 -237 0
-29 -239 0
-33 -240 0
-32 -245 0
-32 -239 0
-40 -44 0
-36 -45 0
-42 -48 0
-42 -44 0
-38 -50 0
-39 -52 0
-36 -53 0
-38 -51 0
-42 -58 0
-37 -59 0
-42 -60 0
-36 -58 0
-39 -65 0
-37 -69 0
-38 -68 0
-42 -69 0
-38 -76 0
-41 -76 0
-38 -75 0
-41 -75 0
-38 -83 0
-42 -82 0
-40 -78 0
-42 -84 0
-40 -87 0
-36 -89 0
-41 -88 0
-37 -88 0
-36 -108 0
-38 -108 0
-41 -110 0
-38 -112 0
-36 -114 0
-41 -116 0
-36 -113 0
-41 -114 0
-41 -126 0
-42 -120 0
-41 -124 0
-39 -122 0
-37 -138 0
-36 -140 0
-37 -134 0
-36 -135 0
-37 -143 0
-41 -141 0
-39 -142 0
-38 -144 0
-37 -153 0
-37 -152 0
-36 -153 0
-37 -154 0
-40 -157 0
-36 -157 0
-39 -156 0
-41 -161 0
-36 -171 0
-38 -173 0
-37 -169 0
-38 -171 0
-36 -181 0
-38 -178 0
-37 -176 0
-41 -181 0
-36 -193 0
-41 -195 0
-42 -191 0
-38 -195 0
-38 -200 0
-41 -201 0
-37 -197 0
-39 -202 0
-38 -209 0
-42 -207 0
-38 -205 0
-37 -206 0
-40 -213 0
-41 -215 0
-41 -214 0
-38 -214 0
-42 -222 0
-38 -220 0
-41 -224 0
-42 -223 0
-39 -226 0
-39 -225 0
-36 -229 0
-42 -230 0
-38 -232 0
-40 -234 0
-40 -238 0
-36 -237 0
-45 -56 0
-46 -55 0
-44 -52 0
-49 -50 0
-48 -62 0
-48 -57 0
-43 -60 0
-48 -61 0
-46 -68 0
-44 -66 0
-44 -69 0
-48 -67 0
-44 -77 0
-44 -74 0
-45 -75 0
-44 -76 0
-43 -85 0
-48 -91 0
-48 -90 0
-49 -90 0
-47 -96 0
-45 -93 0
-45 -95 0
-44 -98 0
-49 -105 0
-47 -101 0
-46 -102 0
-43 -99 0
-44 -110 0
-49 -112 0
-43 -109 0
-45 -112 0
-48 -120 0
-48 -125 0
-48 -123 0
-45 -125 0
-48 -131 0
-47 -128 0
-48 -128 0
-46 -128 0
-48 -138 0
-45 -139 0
-43 -135 0
-48 -136 0
-48 -143 0
-49 -146 0
-48 -142 0
-49 -141 0
-47 -155 0
-48 -161 0
-43 -161 0
-44 -158 0
-46 -169 0
-47 -171 0
-46 -174 0
-45 -173 0
-48 -186 0
-49 -187 0
-45 -184 0
-43 -187 0
-43 -194 0
-44 -192 0
-47 -194 0
-47 -191 0
-46 -201 0
-47 -197 0
-44 -199 0
-44 -200 0
-46 -205 0
-46 -208 0
-46 -210 0
-45 -205 0
-47 -225 0
-48 -231 0
-46 -227 0
-49 -226 0
-49 -237 0
-46 -237 0
-48 -234 0
-48 -232 0
-56 -59 0
-50 -57 0
-52 -62 0
-50 -60 0
-51 -84 0
-54 -79 0
-51 -80 0
-54 -80 0
-53 -86 0
-54 -85 0
-50 -88 0
-51 -86 0
-55 -92 0
-52 -93 0
-52 -96 0
-53 -94 0
-51 -105 0
-53 -102 0
-55 -101 0
-54 -101 0
-56 -106 0
-56 -108 0
-51 -108 0
-51 -109 0
-55 -114 0
-53 -118 0
-52 -119 0
-50 -117 0
-51 -125 0
-53 -124 0
-55 -123 0
-55 -126 0
-52 -138 0
-53 -139 0
-51 -140 0
-52 -140 0
-50 -143 0
-54 -147 0
-54 -144 0
-52 -147 0
-50 -148 0
-52 -154 0
-50 -151 0
-51 -151 0
-53 -162 0
-51 -163 0
-56 -166 0
-55 -168 0
-53 -169 0
-52 -174 0
-51 -170 0
-56 -174 0
-55 -181 0
-55 -180 0
-53 -177 0
-56 -181 0
-51 -187 0
-56 -186 0
-54 -187 0
-50 -185 0
-54 -190 0
-53 -192 0
-53 -194 0
-54 -192 0
-53 -199 0
-55 -200 0
-52 -203 0
-55 -198 0
-56 -216 0
-56 -212 0
-50 -212 0
-51 -211 0
-50 -218 0
-53 -218 0
-52 -218 0
-55 -221 0
-56 -235 0
-53 -235 0
-52 -233 0
-50 -236 0
-54 -243 0
-56 -239 0
-55 -240 0
-51 -239 0
-57 -68 0
-60 -65 0
-61 -66 0
-63 -68 0
-60 -74 0
-63 -77 0
-58 -72 0
-61 -74 0
-59 -80 0
-57 -78 0
-60 -79 0
-62 -81 0
-61 -91 0
-61 -88 0
-57 -85 0
-58 -86 0
-62 -101 0
-58 -99 0
-63 -101 0
-60 -99 0
-60 -111 0
-60 -107 0
-59 -111 0
-63 -108 0
-61 -117 0
-58 -119 0
-61 -119 0
-60 -119 0
-60 -125 0
-61 -126 0
-61 -120 0
-60 -122 0
-58 -133 0
-61 -131 0
-57 -129 0
-57 -131 0
-60 -134 0
-61 -136 0
-61 -137 0
-57 -135 0
-60 -142 0
-61 -144 0
-58 -141 0
-62 -142 0
-58 -152 0
-59 -150 0
-63 -150 0
-57 -154 0
-61 -157 0
-59 -158 0
-59 -159 0
-63 -160 0
-57 -167 0
-63 -166 0
-61 -163 0
-63 -162 0
-57 -169 0
-60 -174 0
-63 -173 0
-58 -169 0
-59 -184 0
-61 -186 0
-61 -185 0
-58 -189 0
-60 -223 0
-59 -220 0
-61 -222 0
-61 -218 0
-60 -229 0
-57 -231 0
-60 -225 0
-61 -231 0
-60 -232 0
-61 -236 0
-62 -237 0
-62 -232 0
-67 -77 0
-65 -74 0
-69 -72 0
-65 -71 0
-67 -88 0
-70 -87 0
-67 -85 0
-69 -89 0
-66 -97 0
-68 -96 0
-64 -96 0
-64 -97 0
-66 -104 0
-70 -100 0
-64 -102 0
-68 -104 0
-68 -108 0
-64 -109 0
-66 -110 0
-70 -110 0
-69 -126 0
-69 -124 0
-67 -121 0
-68 -120 0
-68 -128 0
-70 -129 0
-70 -130 0
-66 -128 0
-64 -140 0
-64 -138 0
-64 -136 0
-65 -134 0
-70 -168 0
-68 -167 0
-66 -163 0
-64 -164 0
-64 -194 0
-64 -191 0
-67 -192 0
-69 -193 0
-70 -207 0
-70 -208 0
-65 -205 0
-68 -210 0
-64 -217 0
-67 -217 0
-70 -214 0
-69 -214 0
-65 -220 0
-68 -220 0
-68 -224 0
-66 -218 0
-64 -229 0
-65 -229 0
-69 -230 0
-66 -226 0
-69 -233 0
-68 -234 0
-65 -238 0
-65 -237 0
-68 -244 0
-65 -242 0
-68 -241 0
-66 -242 0
-75 -83 0
-73 -78 0
-74 -83 0
-71 -78 0
-73 -107 0
-72 -111 0
-77 -106 0
-71 -110 0
-73 -114 0
-75 -116 0
-74 -116 0
-77 -117 0
-71 -120 0
-71 -126 0
-75 -122 0
-72 -123 0
-77 -134 0
-75 -136 0
-75 -134 0
-77 -138 0
-73 -145 0
-74 -141 0
-75 -147 0
-77 -147 0
-76 -156 0
-74 -159 0
-77 -159 0
-72 -161 0
-77 -165 0
-73 -163 0
-76 -167 0
-74 -167 0
-77 -169 0
-72 -172 0
-72 -171 0
-75 -170 0
-77 -185 0
-77 -189 0
-72 -187 0
-76 -186 0
-73 -193 0
-75 -195 0
-73 -196 0
-77 -195 0
-73 -202 0
-76 -202 0
-74 -201 0
-75 -202 0
-74 -209 0
-77 -209 0
-76 -209 0
-77 -206 0
-74 -228 0
-76 -227 0
-76 -225 0
-71 -227 0
-71 -232 0
-73 -233 0
-72 -233 0
-75 -235 0
-81 -91 0
-79 -89 0
-81 -90 0
-79 -86 0
-82 -98 0
-83 -97 0
-80 -93 0
-80 -94 0
-78 -104 0
-80 -105 0
-84 -104 0
-79 -103 0
-84 -108 0
-78 -108 0
-78 -106 0
-79 -108 0
-81 -118 0
-83 -117 0
-80 -116 0
-83 -113 0
-78 -124 0
-80 -125 0
-81 -123 0
-83 -125 0
-79 -128 0
-80 -130 0
-81 -128 0
-83 -130 0
-79 -136 0
-80 -134 0
-84 -134 0
-80 -140 0
-82 -151 0
-84 -148 0
-84 -154 0
-80 -151 0
-80 -157 0
-84 -157 0
-79 -161 0
-82 -157 0
-83 -169 0
-81 -171 0
-78 -172 0
-83 -175 0
-78 -182 0
-82 -180 0
-83 -181 0
-79 -180 0
-83 -194 0
-80 -190 0
-82 -195 0
-79 -191 0
-82 -198 0
-80 -201 0
-82 -197 0
-81 -203 0
-78 -207 0
-84 -205 0
-82 -210 0
-82 -205 0
-79 -214 0
-80 -213 0
-78 -213 0
-81 -212 0
-79 -233 0
-83 -237 0
-84 -234 0
-81 -238 0
-78 -240 0
-79 -239 0
-80 -245 0
-79 -243 0
-87 -96 0
-88 -98 0
-91 -95 0
-87 -92 0
-91 -110 0
-85 -107 0
-88 -109 0
-88 -110 0
-89 -118 0
-90 -118 0
-91 -117 0
-91 -118 0
-85 -121 0
-90 -122 0
-89 -124 0
-88 -121 0
-86 -134 0
-85 -135 0
-87 -138 0
-89 -139 0
-86 -152 0
-87 -154 0
-85 -150 0
-86 -153 0
-88 -180 0
-88 -182 0
-90 -176 0
-86 -178 0
-86 -188 0
-88 -186 0
-88 -187 0
-90 -184 0
-90 -199 0
-85 -199 0
-91 -198 0
-88 -198 0
-86 -204 0
-87 -209 0
-86 -210 0
-88 -207 0
-89 -217 0
-89 -212 0
-91 -212 0
-85 -216 0
-86 -230 0
-90 -229 0
-86 -227 0
-88 -231 0
-88 -245 0
-87 -241 0
-87 -242 0
-90 -242 0
-95 -104 0
-93 -100 0
-94 -101 0
-93 -102 0
-96 -115 0
-97 -113 0
-92 -118 0
-95 -114 0
-92 -124 0
-96 -126 0
-96 -123 0
-97 -123 0
-94 -127 0
-94 -129 0
-92 -133 0
-92 -130 0
-96 -147 0
-95 -143 0
-98 -142 0
-94 -144 0
-92 -164 0
-97 -167 0
-92 -166 0
-97 -163 0
-95 -177 0
-97 -181 0
-97 -179 0
-96 -178 0
-93 -194 0
-96 -196 0
-96 -190 0
-96 -191 0
-98 -208 0
-97 -209 0
-97 -210 0
-95 -209 0
-94 -211 0
-95 -214 0
-94 -217 0
-94 -213 0
-93 -219 0
-94 -220 0
-96 -219 0
-96 -223 0
-95 -233 0
-94 -238 0
-97 -232 0
-96 -232 0
-94 -245 0
-92 -244 0
-97 -243 0
-93 -241 0
-101 -106 0
-99 -107 0
-103 -106 0
-105 -112 0
-102 -122 0
-100 -125 0
-101 -124 0
-101 -120 0
-105 -132 0
-99 -128 0
-104 -131 0
-100 -132 0
-101 -135 0
-100 -134 0
-103 -138 0
-103 -134 0
-105 -146 0
-102 -142 0
-101 -147 0
-101 -145 0
-100 -152 0
-99 -152 0
-101 -149 0
-102 -148 0
-100 -160 0
-99 -157 0
-103 -156 0
-102 -161 0
-101 -172 0
-100 -169 0
-105 -175 0
-103 -175 0
-100 -181 0
-105 -176 0
-103 -178 0
-100 -179 0
-102 -186 0
-100 -188 0
-101 -185 0
-105 -187 0
-104 -208 0
-102 -210 0
-100 -206 0
-104 -207 0
-102 -214 0
-104 -214 0
-105 -216 0
-99 -217 0
-100 -230 0
-105 -228 0
-101 -226 0
-103 -225 0
-105 -241 0
-104 -242 0
-101 -240 0
-101 -242 0
-106 -131 0
-109 -132 0
-109 -133 0
-106 -129 0
-110 -136 0
-111 -136 0
-112 -139 0
-107 -134 0
-109 -150 0
-112 -150 0
-110 -152 0
-110 -150 0
-109 -157 0
-108 -157 0
-107 -157 0
-108 -155 0
-111 -164 0
-108 -166 0
-111 -167 0
-111 -163 0
-107 -176 0
-107 -178 0
-109 -182 0
-109 -180 0
-109 -192 0
-108 -191 0
-110 -195 0
-109 -196 0
-112 -198 0
-112 -200 0
-107 -201 0
-111 -197 0
-106 -228 0
-111 -226 0
-108 -226 0
-108 -230 0
-118 -124 0
-114 -122 0
-114 -121 0
-114 -124 0
-117 -139 0
-116 -140 0
-119 -135 0
-119 -140 0
-116 -142 0
-119 -142 0
-117 -146 0
-116 -147 0
-116 -165 0
-117 -168 0
-118 -166 0
-118 -163 0
-113 -182 0
-113 -179 0
-113 -180 0
-118 -177 0
-117 -194 0
-115 -195 0
-114 -194 0
-113 -191 0
-113 -202 0
-119 -198 0
-119 -200 0
-114 -200 0
-113 -209 0
-115 -205 0
-119 -208 0
-117 -206 0
-118 -217 0
-114 -211 0
-115 -213 0
-114 -216 0
-115 -219 0
-117 -224 0
-116 -219 0
-117 -222 0
-116 -233 0
-114 -237 0
-119 -236 0
-117 -234 0
-125 -132 0
-121 -133 0
-124 -131 0
-126 -128 0
-120 -137 0
-121 -138 0
-123 -134 0
-122 -140 0
-124 -147 0
-120 -147 0
-123 -141 0
-121 -141 0
-120 -150 0
-120 -149 0
-122 -148 0
-125 -151 0
-124 -165 0
-123 -163 0
-123 -167 0
-121 -163 0
-120 -173 0
-125 -171 0
-126 -170 0
-120 -171 0
-121 -176 0
-126 -177 0
-123 -176 0
-125 -181 0
-123 -192 0
-125 -191 0
-122 -194 0
-123 -196 0
-120 -207 0
-126 -208 0
-125 -207 0
-126 -210 0
-122 -230 0
-120 -225 0
-125 -227 0
-120 -230 0
-120 -243 0
-124 -243 0
-122 -241 0
-126 -240 0
-127 -138 0
-132 -139 0
-132 -138 0
-133 -136 0
-132 -145 0
-129 -146 0
-129 -142 0
-131 -142 0
-127 -160 0
-133 -161 0
-129 -160 0
-129 -159 0
-129 -182 0
-127 -179 0
-128 -179 0
-133 -178 0
-130 -185 0
-132 -184 0
-133 -188 0
-132 -185 0
-132 -220 0
-133 -222 0
-130 -218 0
-133 -220 0
-131 -233 0
-127 -237 0
-128 -234 0
-132 -235 0
-132 -241 0
-131 -241 0
-129 -243 0
-128 -242 0
-140 -145 0
-134 -143 0
-135 -141 0
-139 -143 0
-137 -154 0
-139 -148 0
-139 -150 0
-136 -154 0
-140 -159 0
-136 -159 0
-134 -159 0
-134 -155 0
-135 -166 0
-137 -167 0
-138 -163 0
-134 -164 0
-140 -173 0
-138 -174 0
-135 -169 0
-134 -170 0
-136 -176 0
-138 -181 0
-137 -176 0
-135 -176 0
-137 -188 0
-134 -186 0
-139 -187 0
-139 -185 0
-135 -194 0
-138 -192 0
-136 -190 0
-139 -193 0
-137 -202 0
-134 -199 0
-136 -198 0
-140 -197 0
-137 -207 0
-139 -208 0
-138 -209 0
-138 -210 0
-136 -214 0
-136 -215 0
-135 -212 0
-139 -213 0
-139 -224 0
-138 -223 0
-139 -220 0
-136 -218 0
-140 -230 0
-137 -226 0
-137 -227 0
-140 -229 0
-134 -238 0
-134 -233 0
-140 -238 0
-135 -238 0
-137 -239 0
-138 -240 0
-140 -244 0
-137 -242 0
-143 -166 0
-143 -162 0
-147 -167 0
-146 -163 0
-141 -173 0
-141 -171 0
-141 -172 0
-146 -173 0
-147 -180 0
-145 -178 0
-143 -177 0
-142 -179 0
-142 -188 0
-141 -186 0
-144 -187 0
-144 -183 0
-142 -201 0
-144 -200 0
-143 -198 0
-145 -198 0
-144 -208 0
-145 -204 0
-144 -207 0
-142 -206 0
-144 -217 0
-147 -213 0
-142 -211 0
-143 -212 0
-143 -223 0
-142 -222 0
-144 -221 0
-144 -220 0
-141 -226 0
-143 -228 0
-144 -226 0
-145 -226 0
-145 -239 0
-142 -240 0
-141 -241 0
-147 -244 0
-149 -158 0
-153 -155 0
-154 -156 0
-152 -155 0
-149 -167 0
-150 -164 0
-149 -166 0
-153 -162 0
-150 -173 0
-153 -169 0
-148 -171 0
-151 -169 0
-150 -186 0
-149 -187 0
-151 -187 0
-154 -188 0
-151 -204 0
-154 -207 0
-152 -207 0
-148 -209 0
-151 -216 0
-150 -216 0
-152 -216 0
-149 -217 0
-151 -226 0
-154 -231 0
-148 -227 0
-154 -225 0
-151 -240 0
-150 -241 0
-148 -243 0
-150 -245 0
-158 -165 0
-155 -164 0
-159 -167 0
-157 -167 0
-155 -174 0
-159 -175 0
-156 -172 0
-156 -174 0
-158 -179 0
-158 -177 0
-156 -181 0
-160 -181 0
-160 -183 0
-156 -183 0
-159 -186 0
-158 -188 0
-156 -194 0
-159 -193 0
-155 -194 0
-160 -190 0
-156 -198 0
-158 -203 0
-157 -202 0
-159 -200 0
-160 -214 0
-159 -214 0
-160 -212 0
-157 -217 0
-160 -227 0
-155 -225 0
-157 -226 0
-158 -228 0
-158 -236 0
-161 -237 0
-160 -238 0
-157 -237 0
-162 -173 0
-167 -172 0
-168 -175 0
-167 -174 0
-166 -184 0
-165 -189 0
-165 -183 0
-163 -184 0
-166 -191 0
-165 -193 0
-165 -195 0
-166 -194 0
-162 -201 0
-162 -197 0
-164 -200 0
-164 -199 0
-168 -216 0
-164 -217 0
-163 -214 0
-163 -217 0
-168 -221 0
-165 -218 0
-168 -223 0
-166 -224 0
-163 -236 0
-164 -232 0
-166 -235 0
-166 -237 0
-165 -240 0
-164 -240 0
-166 -242 0
-165 -244 0
-169 -182 0
-172 -181 0
-170 -179 0
-173 -176 0
-172 -192 0
-173 -191 0
-169 -196 0
-171 -192 0
-172 -210 0
-172 -206 0
-171 -208 0
-173 -210 0
-175 -211 0
-169 -216 0
-172 -217 0
-169 -215 0
-171 -226 0
-175 -227 0
-169 -230 0
-173 -228 0
-171 -242 0
-172 -239 0
-174 -240 0
-169 -242 0
-181 -183 0
-181 -188 0
-178 -183 0
-178 -189 0
-179 -191 0
-177 -195 0
-181 -196 0
-176 -191 0
-177 -203 0
-177 -200 0
-178 -197 0
-181 -197 0
-176 -206 0
-182 -210 0
-178 -210 0
-176 -205 0
-178 -219 0
-179 -224 0
-178 -218 0
-178 -222 0
-182 -229 0
-180 -231 0
-177 -225 0
-178 -230 0
-176 -241 0
-177 -242 0
-180 -240 0
-179 -244 0
-187 -194 0
-188 -194 0
-185 -196 0
-183 -196 0
-186 -203 0
-185 -201 0
-187 -197 0
-185 -203 0
-186 -208 0
-184 -208 0
-189 -206 0
-189 -210 0
-183 -214 0
-184 -217 0
-185 -213 0
-189 -217 0
-184 -220 0
-189 -221 0
-186 -222 0
-184 -219 0
-189 -225 0
-183 -226 0
-189 -229 0
-188 -227 0
-194 -202 0
-195 -198 0
-193 -197 0
-191 -198 0
-190 -204 0
-194 -209 0
-190 -209 0
-192 -210 0
-195 -212 0
-190 -212 0
-193 -216 0
-196 -211 0
-196 -236 0
-194 -233 0
-191 -237 0
-196 -235 0
-193 -244 0
-190 -245 0
-194 -244 0
-193 -240 0
-203 -205 0
-201 -205 0
-203 -207 0
-199 -208 0
-201 -213 0
-199 -216 0
-200 -217 0
-202 -212 0
-199 -222 0
-202 -219 0
-202 -224 0
-199 -218 0
-202 -234 0
-199 -234 0
-198 -236 0
-200 -232 0
-204 -212 0
-206 -211 0
-204 -213 0
-204 -211 0
-205 -220 0
-204 -222 0
-207 -223 0
-209 -220 0
-205 -225 0
-210 -226 0
-210 -225 0
-207 -227 0
-205 -232 0
-208 -234 0
-209 -233 0
-206 -238 0
-206 -239 0
-210 -239 0
-204 -241 0
-209 -240 0
-211 -218 0
-215 -219 0
-213 -223 0
-213 -218 0
-215 -232 0
-217 -234 0
-211 -237 0
-213 -234 0
-211 -239 0
-211 -243 0
-214 -240 0
-212 -243 0
-224 -227 0
-222 -226 0
-223 -225 0
-219 -226 0
-219 -244 0
-222 -243 0
-223 -244 0
-220 -243 0
-229 -240 0
-230 -242 0
-230 -243 0
-228 -239 0
-236 -239 0
-238 -239 0
-232 -240 0
-234 -242 0
